solution status: optimal solution found
objective value:                                   61
C0047                                               1 	(obj:1)
C0103                                               1 	(obj:1)
C0166                                               1 	(obj:1)
C0239                                               1 	(obj:1)
C0303                                               1 	(obj:1)
C0341                                               1 	(obj:1)
C0412                                               1 	(obj:1)
C0505                                               1 	(obj:1)
C0549                                               1 	(obj:1)
C0597                                               1 	(obj:1)
C0656                                               1 	(obj:1)
C0713                                               1 	(obj:1)
C0796                                               1 	(obj:1)
C0851                                               1 	(obj:1)
C0915                                               1 	(obj:1)
C0962                                               1 	(obj:1)
C1008                                               1 	(obj:1)
C1092                                               1 	(obj:1)
C1138                                               1 	(obj:1)
C1190                                               1 	(obj:1)
C1277                                               1 	(obj:1)
C1339                                               1 	(obj:1)
C1381                                               1 	(obj:1)
C1467                                               1 	(obj:1)
C1500                                               1 	(obj:1)
C1545                                               1 	(obj:1)
C1641                                               1 	(obj:1)
C1702                                               1 	(obj:1)
C1773                                               1 	(obj:1)
C1829                                               1 	(obj:1)
C1884                                               1 	(obj:1)
C1927                                               1 	(obj:1)
C2019                                               1 	(obj:1)
C2058                                               1 	(obj:1)
C2082                                               1 	(obj:1)
C2155                                               1 	(obj:1)
C2257                                               1 	(obj:1)
C2308                                               1 	(obj:1)
C2346                                               1 	(obj:1)
C2391                                               1 	(obj:1)
C2480                                               1 	(obj:1)
C2528                                               1 	(obj:1)
C2564                                               1 	(obj:1)
C2629                                               1 	(obj:1)
C2735                                               1 	(obj:1)
C2770                                               1 	(obj:1)
C2850                                               1 	(obj:1)
C2894                                               1 	(obj:1)
C2966                                               1 	(obj:1)
C2994                                               1 	(obj:1)
C3100                                               1 	(obj:1)
C3133                                               1 	(obj:1)
C3214                                               1 	(obj:1)
C3244                                               1 	(obj:1)
C3305                                               1 	(obj:1)
C3398                                               1 	(obj:1)
C3451                                               1 	(obj:1)
C3503                                               1 	(obj:1)
C3572                                               1 	(obj:1)
C3636                                               1 	(obj:1)
C0024                                               1 	(obj:1)
